# Objective value = 17
WA1n 0
WA1p 0
WA2n 0
WA2p 1
WB1n 0
WB1p 0
WB2n 0
WB2p 1
WC1n 1
WC1p 0
WD1n 0
WD1p 1
WE1n 0
WE1p 1
WF1n 3
WF1p 0
WF2n 1
WF2p 0
WG1n 3
WG1p 0
WG2n 1
WG2p 0
WT1n 0
WT1p 0
5 7
a 0
b 1
c 0
d 1
e 0
f 1
g 1
h 0
i 0
j 0
k 0
l 0
